p cnf 188 1056
1 -81 0
1 -82 0
81 -81 0
82 -82 0
21 -87 0
21 -88 0
87 -87 0
88 -88 0
41 -93 0
41 -94 0
93 -93 0
94 -94 0
61 -99 0
61 -100 0
99 -99 0
100 -100 0
2 -81 0
2 -82 0
81 -81 0
82 -82 0
22 -87 0
22 -88 0
87 -87 0
88 -88 0
42 -93 0
42 -94 0
93 -93 0
94 -94 0
62 -99 0
62 -100 0
99 -99 0
100 -100 0
3 -105 -81 0
-3 105 -81 0
3 105 -82 0
-3 -105 -82 0
23 -105 -87 0
-23 105 -87 0
23 105 -88 0
-23 -105 -88 0
43 -105 -93 0
-43 105 -93 0
43 105 -94 0
-43 -105 -94 0
63 -105 -99 0
-63 105 -99 0
63 105 -100 0
-63 -105 -100 0
4 -106 -81 0
-4 106 -81 0
4 106 -82 0
-4 -106 -82 0
24 -106 -87 0
-24 106 -87 0
24 106 -88 0
-24 -106 -88 0
44 -106 -93 0
-44 106 -93 0
44 106 -94 0
-44 -106 -94 0
64 -106 -99 0
-64 106 -99 0
64 106 -100 0
-64 -106 -100 0
5 -107 -81 0
-5 107 -81 0
5 107 -82 0
-5 -107 -82 0
25 -107 -87 0
-25 107 -87 0
25 107 -88 0
-25 -107 -88 0
45 -107 -93 0
-45 107 -93 0
45 107 -94 0
-45 -107 -94 0
65 -107 -99 0
-65 107 -99 0
65 107 -100 0
-65 -107 -100 0
6 -81 0
6 -82 0
81 -81 0
82 -82 0
26 -87 0
26 -88 0
87 -87 0
88 -88 0
46 -93 0
46 -94 0
93 -93 0
94 -94 0
66 -99 0
66 -100 0
99 -99 0
100 -100 0
7 -108 -81 0
-7 108 -81 0
7 108 -82 0
-7 -108 -82 0
27 -108 -87 0
-27 108 -87 0
27 108 -88 0
-27 -108 -88 0
47 -108 -93 0
-47 108 -93 0
47 108 -94 0
-47 -108 -94 0
67 -108 -99 0
-67 108 -99 0
67 108 -100 0
-67 -108 -100 0
-8 -81 0
-8 -82 0
81 -81 0
82 -82 0
-28 -87 0
-28 -88 0
87 -87 0
88 -88 0
-48 -93 0
-48 -94 0
93 -93 0
94 -94 0
-68 -99 0
-68 -100 0
99 -99 0
100 -100 0
9 -81 0
9 -82 0
81 -81 0
82 -82 0
29 -87 0
29 -88 0
87 -87 0
88 -88 0
49 -93 0
49 -94 0
93 -93 0
94 -94 0
69 -99 0
69 -100 0
99 -99 0
100 -100 0
10 -81 0
10 -82 0
81 -81 0
82 -82 0
30 -87 0
30 -88 0
87 -87 0
88 -88 0
50 -93 0
50 -94 0
93 -93 0
94 -94 0
70 -99 0
70 -100 0
99 -99 0
100 -100 0
11 -81 0
11 -82 0
81 -81 0
82 -82 0
31 -87 0
31 -88 0
87 -87 0
88 -88 0
51 -93 0
51 -94 0
93 -93 0
94 -94 0
71 -99 0
71 -100 0
99 -99 0
100 -100 0
12 -109 -81 0
-12 109 -81 0
12 109 -82 0
-12 -109 -82 0
32 -109 -87 0
-32 109 -87 0
32 109 -88 0
-32 -109 -88 0
52 -109 -93 0
-52 109 -93 0
52 109 -94 0
-52 -109 -94 0
72 -109 -99 0
-72 109 -99 0
72 109 -100 0
-72 -109 -100 0
13 -110 -81 0
-13 110 -81 0
13 110 -82 0
-13 -110 -82 0
33 -110 -87 0
-33 110 -87 0
33 110 -88 0
-33 -110 -88 0
53 -110 -93 0
-53 110 -93 0
53 110 -94 0
-53 -110 -94 0
73 -110 -99 0
-73 110 -99 0
73 110 -100 0
-73 -110 -100 0
14 -111 -81 0
-14 111 -81 0
14 111 -82 0
-14 -111 -82 0
34 -111 -87 0
-34 111 -87 0
34 111 -88 0
-34 -111 -88 0
54 -111 -93 0
-54 111 -93 0
54 111 -94 0
-54 -111 -94 0
74 -111 -99 0
-74 111 -99 0
74 111 -100 0
-74 -111 -100 0
-15 -81 0
-15 -82 0
81 -81 0
82 -82 0
-35 -87 0
-35 -88 0
87 -87 0
88 -88 0
-55 -93 0
-55 -94 0
93 -93 0
94 -94 0
-75 -99 0
-75 -100 0
99 -99 0
100 -100 0
16 -112 -81 0
-16 112 -81 0
16 112 -82 0
-16 -112 -82 0
36 -112 -87 0
-36 112 -87 0
36 112 -88 0
-36 -112 -88 0
56 -112 -93 0
-56 112 -93 0
56 112 -94 0
-56 -112 -94 0
76 -112 -99 0
-76 112 -99 0
76 112 -100 0
-76 -112 -100 0
17 -81 0
17 -82 0
81 -81 0
82 -82 0
37 -87 0
37 -88 0
87 -87 0
88 -88 0
57 -93 0
57 -94 0
93 -93 0
94 -94 0
77 -99 0
77 -100 0
99 -99 0
100 -100 0
18 -81 0
18 -82 0
81 -81 0
82 -82 0
38 -87 0
38 -88 0
87 -87 0
88 -88 0
58 -93 0
58 -94 0
93 -93 0
94 -94 0
78 -99 0
78 -100 0
99 -99 0
100 -100 0
19 -81 0
19 -82 0
81 -81 0
82 -82 0
39 -87 0
39 -88 0
87 -87 0
88 -88 0
59 -93 0
59 -94 0
93 -93 0
94 -94 0
79 -99 0
79 -100 0
99 -99 0
100 -100 0
20 -81 0
20 -82 0
81 -81 0
82 -82 0
40 -87 0
40 -88 0
87 -87 0
88 -88 0
60 -93 0
60 -94 0
93 -93 0
94 -94 0
80 -99 0
80 -100 0
99 -99 0
100 -100 0
-165 81 0
165 -81 0
-166 82 0
165 -82 0
-165 -81 0
-166 -82 0
-171 81 165 0
171 -81 0
171 -165 0
-172 82 166 0
172 -82 0
172 -166 0
-171 -87 0
-172 -88 0
-177 87 171 0
177 -87 0
177 -171 0
-178 88 172 0
178 -88 0
178 -172 0
-177 -93 0
-178 -94 0
-183 93 177 0
183 -93 0
183 -177 0
-184 94 178 0
184 -94 0
184 -178 0
-183 -99 0
-184 -100 0
183 0
184 0
1 -83 0
1 -84 0
83 -83 0
84 -84 0
21 -89 0
21 -90 0
89 -89 0
90 -90 0
41 -95 0
41 -96 0
95 -95 0
96 -96 0
61 -101 0
61 -102 0
101 -101 0
102 -102 0
2 -83 0
2 -84 0
83 -83 0
84 -84 0
22 -89 0
22 -90 0
89 -89 0
90 -90 0
42 -95 0
42 -96 0
95 -95 0
96 -96 0
62 -101 0
62 -102 0
101 -101 0
102 -102 0
3 -113 -83 0
-3 113 -83 0
3 113 -84 0
-3 -113 -84 0
23 -113 -89 0
-23 113 -89 0
23 113 -90 0
-23 -113 -90 0
43 -113 -95 0
-43 113 -95 0
43 113 -96 0
-43 -113 -96 0
63 -113 -101 0
-63 113 -101 0
63 113 -102 0
-63 -113 -102 0
4 -83 0
4 -84 0
83 -83 0
84 -84 0
24 -89 0
24 -90 0
89 -89 0
90 -90 0
44 -95 0
44 -96 0
95 -95 0
96 -96 0
64 -101 0
64 -102 0
101 -101 0
102 -102 0
5 -83 0
5 -84 0
83 -83 0
84 -84 0
25 -89 0
25 -90 0
89 -89 0
90 -90 0
45 -95 0
45 -96 0
95 -95 0
96 -96 0
65 -101 0
65 -102 0
101 -101 0
102 -102 0
6 -83 0
6 -84 0
83 -83 0
84 -84 0
26 -89 0
26 -90 0
89 -89 0
90 -90 0
46 -95 0
46 -96 0
95 -95 0
96 -96 0
66 -101 0
66 -102 0
101 -101 0
102 -102 0
7 -83 0
7 -84 0
83 -83 0
84 -84 0
27 -89 0
27 -90 0
89 -89 0
90 -90 0
47 -95 0
47 -96 0
95 -95 0
96 -96 0
67 -101 0
67 -102 0
101 -101 0
102 -102 0
8 -83 0
8 -84 0
83 -83 0
84 -84 0
28 -89 0
28 -90 0
89 -89 0
90 -90 0
48 -95 0
48 -96 0
95 -95 0
96 -96 0
68 -101 0
68 -102 0
101 -101 0
102 -102 0
-9 -83 0
-9 -84 0
83 -83 0
84 -84 0
-29 -89 0
-29 -90 0
89 -89 0
90 -90 0
-49 -95 0
-49 -96 0
95 -95 0
96 -96 0
-69 -101 0
-69 -102 0
101 -101 0
102 -102 0
10 -83 0
10 -84 0
83 -83 0
84 -84 0
30 -89 0
30 -90 0
89 -89 0
90 -90 0
50 -95 0
50 -96 0
95 -95 0
96 -96 0
70 -101 0
70 -102 0
101 -101 0
102 -102 0
11 -83 0
11 -84 0
83 -83 0
84 -84 0
31 -89 0
31 -90 0
89 -89 0
90 -90 0
51 -95 0
51 -96 0
95 -95 0
96 -96 0
71 -101 0
71 -102 0
101 -101 0
102 -102 0
12 -83 0
12 -84 0
83 -83 0
84 -84 0
32 -89 0
32 -90 0
89 -89 0
90 -90 0
52 -95 0
52 -96 0
95 -95 0
96 -96 0
72 -101 0
72 -102 0
101 -101 0
102 -102 0
13 -83 0
13 -84 0
83 -83 0
84 -84 0
33 -89 0
33 -90 0
89 -89 0
90 -90 0
53 -95 0
53 -96 0
95 -95 0
96 -96 0
73 -101 0
73 -102 0
101 -101 0
102 -102 0
14 -83 0
14 -84 0
83 -83 0
84 -84 0
34 -89 0
34 -90 0
89 -89 0
90 -90 0
54 -95 0
54 -96 0
95 -95 0
96 -96 0
74 -101 0
74 -102 0
101 -101 0
102 -102 0
15 -83 0
15 -84 0
83 -83 0
84 -84 0
35 -89 0
35 -90 0
89 -89 0
90 -90 0
55 -95 0
55 -96 0
95 -95 0
96 -96 0
75 -101 0
75 -102 0
101 -101 0
102 -102 0
16 -83 0
16 -84 0
83 -83 0
84 -84 0
36 -89 0
36 -90 0
89 -89 0
90 -90 0
56 -95 0
56 -96 0
95 -95 0
96 -96 0
76 -101 0
76 -102 0
101 -101 0
102 -102 0
-17 -83 0
-17 -84 0
83 -83 0
84 -84 0
-37 -89 0
-37 -90 0
89 -89 0
90 -90 0
-57 -95 0
-57 -96 0
95 -95 0
96 -96 0
-77 -101 0
-77 -102 0
101 -101 0
102 -102 0
18 -83 0
18 -84 0
83 -83 0
84 -84 0
38 -89 0
38 -90 0
89 -89 0
90 -90 0
58 -95 0
58 -96 0
95 -95 0
96 -96 0
78 -101 0
78 -102 0
101 -101 0
102 -102 0
19 -114 -83 0
-19 114 -83 0
19 114 -84 0
-19 -114 -84 0
39 -114 -89 0
-39 114 -89 0
39 114 -90 0
-39 -114 -90 0
59 -114 -95 0
-59 114 -95 0
59 114 -96 0
-59 -114 -96 0
79 -114 -101 0
-79 114 -101 0
79 114 -102 0
-79 -114 -102 0
20 -115 -83 0
-20 115 -83 0
20 115 -84 0
-20 -115 -84 0
40 -115 -89 0
-40 115 -89 0
40 115 -90 0
-40 -115 -90 0
60 -115 -95 0
-60 115 -95 0
60 115 -96 0
-60 -115 -96 0
80 -115 -101 0
-80 115 -101 0
80 115 -102 0
-80 -115 -102 0
-167 83 0
167 -83 0
-168 84 0
167 -84 0
-167 -83 0
-168 -84 0
-173 83 167 0
173 -83 0
173 -167 0
-174 84 168 0
174 -84 0
174 -168 0
-173 -89 0
-174 -90 0
-179 89 173 0
179 -89 0
179 -173 0
-180 90 174 0
180 -90 0
180 -174 0
-179 -95 0
-180 -96 0
-185 95 179 0
185 -95 0
185 -179 0
-186 96 180 0
186 -96 0
186 -180 0
-185 -101 0
-186 -102 0
185 0
186 0
1 -85 0
1 -86 0
85 -85 0
86 -86 0
21 -91 0
21 -92 0
91 -91 0
92 -92 0
41 -97 0
41 -98 0
97 -97 0
98 -98 0
61 -103 0
61 -104 0
103 -103 0
104 -104 0
2 -85 0
2 -86 0
85 -85 0
86 -86 0
22 -91 0
22 -92 0
91 -91 0
92 -92 0
42 -97 0
42 -98 0
97 -97 0
98 -98 0
62 -103 0
62 -104 0
103 -103 0
104 -104 0
-3 -85 0
-3 -86 0
85 -85 0
86 -86 0
-23 -91 0
-23 -92 0
91 -91 0
92 -92 0
-43 -97 0
-43 -98 0
97 -97 0
98 -98 0
-63 -103 0
-63 -104 0
103 -103 0
104 -104 0
4 -116 -85 0
-4 116 -85 0
4 116 -86 0
-4 -116 -86 0
24 -116 -91 0
-24 116 -91 0
24 116 -92 0
-24 -116 -92 0
44 -116 -97 0
-44 116 -97 0
44 116 -98 0
-44 -116 -98 0
64 -116 -103 0
-64 116 -103 0
64 116 -104 0
-64 -116 -104 0
5 -117 -85 0
-5 117 -85 0
5 117 -86 0
-5 -117 -86 0
25 -117 -91 0
-25 117 -91 0
25 117 -92 0
-25 -117 -92 0
45 -117 -97 0
-45 117 -97 0
45 117 -98 0
-45 -117 -98 0
65 -117 -103 0
-65 117 -103 0
65 117 -104 0
-65 -117 -104 0
6 -85 0
6 -86 0
85 -85 0
86 -86 0
26 -91 0
26 -92 0
91 -91 0
92 -92 0
46 -97 0
46 -98 0
97 -97 0
98 -98 0
66 -103 0
66 -104 0
103 -103 0
104 -104 0
7 -85 0
7 -86 0
85 -85 0
86 -86 0
27 -91 0
27 -92 0
91 -91 0
92 -92 0
47 -97 0
47 -98 0
97 -97 0
98 -98 0
67 -103 0
67 -104 0
103 -103 0
104 -104 0
8 -85 0
8 -86 0
85 -85 0
86 -86 0
28 -91 0
28 -92 0
91 -91 0
92 -92 0
48 -97 0
48 -98 0
97 -97 0
98 -98 0
68 -103 0
68 -104 0
103 -103 0
104 -104 0
-9 -85 0
-9 -86 0
85 -85 0
86 -86 0
-29 -91 0
-29 -92 0
91 -91 0
92 -92 0
-49 -97 0
-49 -98 0
97 -97 0
98 -98 0
-69 -103 0
-69 -104 0
103 -103 0
104 -104 0
10 -85 0
10 -86 0
85 -85 0
86 -86 0
30 -91 0
30 -92 0
91 -91 0
92 -92 0
50 -97 0
50 -98 0
97 -97 0
98 -98 0
70 -103 0
70 -104 0
103 -103 0
104 -104 0
11 -85 0
11 -86 0
85 -85 0
86 -86 0
31 -91 0
31 -92 0
91 -91 0
92 -92 0
51 -97 0
51 -98 0
97 -97 0
98 -98 0
71 -103 0
71 -104 0
103 -103 0
104 -104 0
12 -85 0
12 -86 0
85 -85 0
86 -86 0
32 -91 0
32 -92 0
91 -91 0
92 -92 0
52 -97 0
52 -98 0
97 -97 0
98 -98 0
72 -103 0
72 -104 0
103 -103 0
104 -104 0
13 -85 0
13 -86 0
85 -85 0
86 -86 0
33 -91 0
33 -92 0
91 -91 0
92 -92 0
53 -97 0
53 -98 0
97 -97 0
98 -98 0
73 -103 0
73 -104 0
103 -103 0
104 -104 0
14 -85 0
14 -86 0
85 -85 0
86 -86 0
34 -91 0
34 -92 0
91 -91 0
92 -92 0
54 -97 0
54 -98 0
97 -97 0
98 -98 0
74 -103 0
74 -104 0
103 -103 0
104 -104 0
15 -85 0
15 -86 0
85 -85 0
86 -86 0
35 -91 0
35 -92 0
91 -91 0
92 -92 0
55 -97 0
55 -98 0
97 -97 0
98 -98 0
75 -103 0
75 -104 0
103 -103 0
104 -104 0
16 -85 0
16 -86 0
85 -85 0
86 -86 0
36 -91 0
36 -92 0
91 -91 0
92 -92 0
56 -97 0
56 -98 0
97 -97 0
98 -98 0
76 -103 0
76 -104 0
103 -103 0
104 -104 0
-17 -85 0
-17 -86 0
85 -85 0
86 -86 0
-37 -91 0
-37 -92 0
91 -91 0
92 -92 0
-57 -97 0
-57 -98 0
97 -97 0
98 -98 0
-77 -103 0
-77 -104 0
103 -103 0
104 -104 0
18 -85 0
18 -86 0
85 -85 0
86 -86 0
38 -91 0
38 -92 0
91 -91 0
92 -92 0
58 -97 0
58 -98 0
97 -97 0
98 -98 0
78 -103 0
78 -104 0
103 -103 0
104 -104 0
-19 -85 0
-19 -86 0
85 -85 0
86 -86 0
-39 -91 0
-39 -92 0
91 -91 0
92 -92 0
-59 -97 0
-59 -98 0
97 -97 0
98 -98 0
-79 -103 0
-79 -104 0
103 -103 0
104 -104 0
-20 -85 0
-20 -86 0
85 -85 0
86 -86 0
-40 -91 0
-40 -92 0
91 -91 0
92 -92 0
-60 -97 0
-60 -98 0
97 -97 0
98 -98 0
-80 -103 0
-80 -104 0
103 -103 0
104 -104 0
-169 85 0
169 -85 0
-170 86 0
169 -86 0
-169 -85 0
-170 -86 0
-175 85 169 0
175 -85 0
175 -169 0
-176 86 170 0
176 -86 0
176 -170 0
-175 -91 0
-176 -92 0
-181 91 175 0
181 -91 0
181 -175 0
-182 92 176 0
182 -92 0
182 -176 0
-181 -97 0
-182 -98 0
-187 97 181 0
187 -97 0
187 -181 0
-188 98 182 0
188 -98 0
188 -182 0
-187 -103 0
-188 -104 0
187 0
188 0
